\ENCODING=ISO-8859-1
\Problem name: 

Minimize
 obj: x1 + x2 + x3 + x4 + x5 + x6 + x7 + x8 + x9 + x10 + x11 + x12 + x13 + x14
      + x15 + x16 + x17 + x18 + x19 + x20 + x21 + x22 + x23 + x24 + x25 + x26
      + x27 + x28 + x29 + x30 + 2 x31 + 2 x32 + 2 x33 + 2 x34 + 2 x35 + 2 x36
      + 2 x37 + 2 x38 + 2 x39 + 2 x40 + 2 x41 + 2 x42 + 2 x43 + 2 x44 + 2 x45
      + 2 x46 + 2 x47 + 2 x48 + 2 x49 + 2 x50 + 2 x51 + 2 x52 + 2 x53 + 2 x54
      + 2 x55 + 2 x56 + 2 x57 + 2 x58 + 2 x59 + 2 x60 + 3 x61 + 3 x62 + 3 x63
      + 3 x64 + 3 x65 + 3 x66 + 3 x67 + 3 x68 + 3 x69 + 3 x70 + 3 x71 + 3 x72
      + 3 x73 + 3 x74 + 3 x75 + 3 x76 + 3 x77 + 3 x78 + 3 x79 + 3 x80 + 4 x81
      + 4 x82 + 4 x83 + 4 x84 + 4 x85 + 4 x86 + 4 x87 + 4 x88 + 4 x89 + 4 x90
      + 4 x91 + 4 x92 + 4 x93 + 4 x94 + 4 x95 + 4 x96 + 4 x97 + 4 x98 + 4 x99
      + 4 x100 + 4 x101 + 4 x102 + 5 x103 + 5 x104 + 5 x105 + 5 x106 + 5 x107
      + 5 x108 + 5 x109 + 5 x110 + 5 x111 + 5 x112 + 5 x113 + 5 x114 + 5 x115
      + 5 x116 + 5 x117 + 5 x118 + 5 x119 + 5 x120 + 5 x121 + 5 x122 + 6 x123
      + 6 x124 + 6 x125 + 6 x126 + 6 x127 + 6 x128 + 6 x129 + 6 x130 + 6 x131
      + 6 x132 + 6 x133 + 6 x134 + 6 x135 + 6 x136 + 6 x137 + 6 x138 + 6 x139
      + 7 x140 + 7 x141 + 7 x142 + 7 x143 + 7 x144 + 7 x145 + 7 x146 + 7 x147
      + 7 x148 + 7 x149 + 7 x150 + 7 x151 + 7 x152 + 7 x153 + 7 x154 + 7 x155
      + 7 x156 + 7 x157 + 7 x158 + 7 x159 + 7 x160 + 7 x161 + 7 x162 + 7 x163
      + 7 x164 + 7 x165 + 7 x166 + 8 x167 + 8 x168 + 8 x169 + 8 x170 + 8 x171
      + 8 x172 + 8 x173 + 8 x174 + 8 x175 + 8 x176 + 8 x177 + 8 x178 + 8 x179
      + 8 x180 + 8 x181 + 9 x182 + 9 x183 + 9 x184 + 9 x185 + 9 x186 + 9 x187
      + 9 x188 + 9 x189 + 9 x190 + 9 x191 + 9 x192 + 9 x193 + 9 x194 + 9 x195
      + 9 x196 + 9 x197 + 10 x198 + 10 x199 + 10 x200 + 10 x201 + 10 x202
      + 10 x203 + 10 x204 + 10 x205 + 10 x206 + 10 x207 + 10 x208 + 10 x209
      + 10 x210 + 10 x211 + 11 x212 + 11 x213 + 11 x214 + 11 x215 + 11 x216
      + 11 x217 + 11 x218 + 11 x219 + 11 x220 + 11 x221 + 11 x222 + 11 x223
      + 11 x224 + 11 x225 + 11 x226 + 11 x227 + 11 x228 + 11 x229 + 11 x230
      + 11 x231 + 11 x232 + 12 x233 + 12 x234 + 12 x235 + 12 x236 + 12 x237
      + 12 x238 + 12 x239 + 12 x240 + 12 x241 + 12 x242 + 12 x243 + 12 x244
      + 12 x245 + 12 x246 + 12 x247 + 12 x248 + 13 x249 + 13 x250 + 13 x251
      + 13 x252 + 13 x253 + 13 x254 + 13 x255 + 13 x256 + 13 x257 + 13 x258
      + 13 x259 + 13 x260 + 13 x261 + 13 x262 + 13 x263 + 14 x264 + 14 x265
      + 14 x266 + 14 x267 + 14 x268 + 14 x269 + 14 x270 + 14 x271 + 14 x272
      + 14 x273 + 15 x274 + 15 x275 + 15 x276 + 15 x277 + 15 x278 + 15 x279
      + 15 x280 + 15 x281 + 15 x282 + 15 x283 + 15 x284 + 15 x285 + 16 x286
      + 16 x287 + 16 x288 + 16 x289 + 16 x290 + 16 x291 + 16 x292 + 16 x293
      + 16 x294 + 17 x295 + 17 x296 + 17 x297 + 17 x298 + 17 x299 + 17 x300
      + 18 x301 + 18 x302 + 18 x303 + 19 x304 + 19 x305 + 19 x306 + 20 x307
      + 20 x308 + 20 x309 + 20 x310 + 20 x311 + 20 x312 + 21 x313 + 21 x314
      + 21 x315 + 21 x316 + 21 x317 + 21 x318 + 22 x319 + 22 x320 + 22 x321
      + 22 x322 + 24 x323 + 24 x324 + 24 x325 + 25 x326 + 25 x327 + 25 x328
      + 26 x329 + 26 x330 + 26 x331 + 27 x332 + 27 x333 + 28 x334 + 29 x335
      + 30 x336 + 33 x337
Subject To
 c1:   x3 + x144 + x171 + x242 + x307 + x309 >= 1
 c2:   x109 + x131 + x215 + x240 + x253 + x282 + x299 + x307 + x327 >= 1
 c3:   x11 + x59 + x118 + x124 + x215 + x223 + x331 >= 1
 c4:   x67 + x190 + x216 + x249 + x337 >= 1
 c5:   x103 + x120 + x202 + x241 + x246 + x277 >= 1
 c6:   x6 + x116 + x227 + x299 + x322 >= 1
 c7:   x67 + x123 + x144 + x275 + x278 + x314 + x321 + x334 >= 1
 c8:   x67 + x128 + x207 + x243 + x251 >= 1
 c9:   x38 + x39 + x87 + x89 + x110 + x140 + x149 + x182 + x206 + x305 + x308
       + x315 + x316 >= 1
 c10:  x27 + x67 + x123 + x253 + x263 + x321 >= 1
 c11:  x18 + x103 + x297 >= 1
 c12:  x63 + x143 + x157 + x170 + x228 + x255 + x288 + x294 >= 1
 c13:  x170 + x192 + x223 + x234 + x259 + x317 + x323 + x326 >= 1
 c14:  x11 + x50 + x71 + x122 + x146 + x251 + x324 >= 1
 c15:  x29 + x80 + x98 + x100 + x170 + x191 + x240 + x291 + x320 + x328 >= 1
 c16:  x5 + x14 + x61 + x190 + x204 + x205 + x304 >= 1
 c17:  x2 + x4 + x8 + x98 + x100 + x239 + x254 + x292 + x296 + x312 >= 1
 c18:  x8 + x10 + x55 + x61 + x62 + x71 + x125 + x198 + x240 + x287 >= 1
 c19:  x170 + x191 + x216 + x230 + x284 + x293 + x308 + x313 + x319 + x321 >= 1
 c20:  x12 + x115 + x129 + x133 + x183 + x215 + x239 >= 1
 c21:  x119 + x146 + x168 + x217 + x295 + x329 >= 1
 c22:  x22 + x102 + x144 + x189 + x201 + x215 + x256 + x260 + x314 >= 1
 c23:  x21 + x95 + x141 + x238 + x328 >= 1
 c24:  x52 + x96 + x162 + x182 + x289 + x306 + x307 >= 1
 c25:  x5 + x31 + x99 + x126 + x238 + x249 + x254 + x257 + x273 + x304 + x309
       + x323 >= 1
 c26:  x66 + x214 + x230 + x245 + x246 + x287 + x307 + x319 >= 1
 c27:  x3 + x95 + x100 + x106 + x121 + x156 + x186 + x237 + x238 + x241 + x278
       + x279 + x282 + x329 + x336 >= 1
 c28:  x3 + x54 + x147 + x219 + x299 + x330 >= 1
 c29:  x84 + x141 + x186 + x222 + x239 + x250 >= 1
 c30:  x94 + x116 + x224 + x231 + x248 + x254 + x292 + x293 >= 1
 c31:  x124 + x164 + x291 + x306 >= 1
 c32:  x70 + x88 + x153 + x181 + x226 + x274 + x299 >= 1
 c33:  x20 + x135 + x199 + x212 + x241 + x291 >= 1
 c34:  x34 + x69 + x131 + x142 + x167 + x174 + x258 + x297 + x302 + x304 >= 1
 c35:  x15 + x17 + x20 + x73 + x90 + x140 + x164 + x170 + x309 >= 1
 c36:  x34 + x70 + x73 + x138 + x182 + x202 + x229 + x266 + x267 + x293 >= 1
 c37:  x32 + x124 + x139 + x143 + x151 + x225 + x251 + x255 + x262 + x307 >= 1
 c38:  x1 + x23 + x67 + x69 >= 1
 c39:  x23 + x89 + x122 + x131 + x143 + x250 + x297 + x324 >= 1
 c40:  x135 + x200 + x212 + x244 + x313 + x329 >= 1
 c41:  x199 + x207 + x213 + x218 + x247 + x261 + x278 + x323 + x330 + x335 >= 1
 c42:  x3 + x55 + x73 + x76 + x197 + x204 + x313 >= 1
 c43:  x41 + x75 + x123 + x219 + x220 + x226 + x236 + x263 + x322 >= 1
 c44:  x40 + x61 + x63 + x92 + x205 + x336 >= 1
 c45:  x16 + x46 + x84 + x228 + x233 + x276 + x319 >= 1
 c46:  x51 + x62 + x81 + x103 + x114 + x165 + x207 + x210 + x247 + x302 + x316
       + x321 >= 1
 c47:  x87 + x106 + x166 + x243 + x271 + x274 + x285 + x291 + x301 + x312
       + x330 + x336 >= 1
 c48:  x41 + x61 + x85 + x104 + x105 + x221 + x233 + x312 >= 1
 c49:  x189 + x232 + x285 + x311 + x315 + x324 + x331 + x336 >= 1
 c50:  x6 + x116 + x304 >= 1
 c51:  x38 + x93 + x102 + x147 + x287 + x305 >= 1
 c52:  x129 + x152 + x201 + x215 + x228 + x266 + x276 + x301 + x336 >= 1
 c53:  x1 + x12 + x19 + x36 + x210 + x275 + x315 >= 1
 c54:  x109 + x171 + x192 + x199 + x237 + x250 + x271 + x272 + x297 + x319
       + x321 >= 1
 c55:  x4 + x20 + x51 + x101 + x222 + x226 + x229 + x295 + x311 + x326 + x331
       >= 1
 c56:  x107 + x125 + x144 + x180 + x182 + x248 + x256 + x280 + x325 >= 1
 c57:  x15 + x39 + x53 + x89 + x110 + x114 + x148 + x192 + x214 + x255 + x276
       + x278 + x288 + x314 >= 1
 c58:  x63 + x75 + x158 + x214 + x218 + x236 + x275 >= 1
 c59:  x85 + x91 + x274 + x290 + x305 + x331 >= 1
 c60:  x2 + x27 + x40 + x168 + x193 + x217 + x235 + x277 + x332 >= 1
 c61:  x9 + x38 + x70 + x145 + x174 + x236 + x238 + x259 + x324 >= 1
 c62:  x30 + x65 + x83 + x172 + x213 + x275 + x281 + x319 + x330 >= 1
 c63:  x9 + x37 + x66 + x84 + x148 + x152 + x192 + x257 + x279 + x300 >= 1
 c64:  x5 + x28 + x37 + x111 + x125 + x194 + x204 + x224 + x259 + x292 + x308
       >= 1
 c65:  x16 + x38 + x72 + x115 + x134 + x179 + x313 + x335 >= 1
 c66:  x21 + x35 + x53 + x88 + x90 >= 1
 c67:  x4 + x7 + x40 + x60 + x252 + x281 >= 1
 c68:  x55 + x71 + x182 + x208 + x277 + x279 + x291 >= 1
 c69:  x50 + x95 + x143 + x190 + x268 + x274 + x282 + x322 >= 1
 c70:  x14 + x76 + x98 + x101 + x104 + x214 + x231 + x261 + x282 >= 1
 c71:  x33 + x86 + x97 + x113 + x145 + x182 + x213 + x323 + x337 >= 1
 c72:  x16 + x37 + x68 + x88 + x200 + x225 + x327 >= 1
 c73:  x69 + x70 + x81 + x87 + x242 + x289 + x298 >= 1
 c74:  x67 + x167 + x177 + x256 + x266 + x308 >= 1
 c75:  x1 + x65 + x86 + x99 + x136 + x185 + x198 + x205 + x232 + x257 + x286
       + x287 + x304 + x337 >= 1
 c76:  x13 + x33 + x48 + x113 + x124 + x133 + x140 + x207 + x235 + x247 + x299
       + x300 >= 1
 c77:  x101 + x172 + x205 + x222 + x227 + x240 + x250 + x324 + x325 + x337 >= 1
 c78:  x13 + x15 + x47 + x130 + x140 + x319 + x320 >= 1
 c79:  x87 + x109 + x113 + x147 + x274 + x280 >= 1
 c80:  x17 + x93 + x137 + x177 + x182 + x255 + x262 + x267 + x292 + x323 >= 1
 c81:  x83 + x108 + x114 + x184 + x217 + x224 + x238 + x262 + x264 + x277
       + x296 >= 1
 c82:  x22 + x32 + x82 + x94 + x173 + x198 + x212 + x296 + x305 >= 1
 c83:  x44 + x69 + x105 + x135 + x140 + x175 + x222 + x245 + x270 + x284 >= 1
 c84:  x124 + x143 + x175 + x184 + x185 + x199 + x200 + x292 + x293 + x329 >= 1
 c85:  x47 + x105 + x125 + x163 + x267 + x282 + x298 >= 1
 c86:  x13 + x32 + x36 + x39 + x214 + x270 >= 1
 c87:  x11 + x37 + x39 + x79 + x167 + x319 + x334 >= 1
 c88:  x32 + x35 + x58 + x169 + x198 + x220 + x295 + x337 >= 1
 c89:  x59 + x66 + x128 + x197 + x213 + x267 + x274 + x275 + x287 + x289 + x323
       >= 1
 c90:  x3 + x33 + x116 + x156 + x199 + x258 + x280 >= 1
 c91:  x10 + x126 + x135 + x169 + x215 + x236 + x276 >= 1
 c92:  x8 + x15 + x24 + x143 + x184 + x206 + x257 >= 1
 c93:  x14 + x88 + x92 + x248 + x258 >= 1
 c94:  x81 + x83 + x123 + x134 + x166 + x168 + x185 >= 1
 c95:  x5 + x45 + x105 + x133 + x139 + x146 + x175 + x298 + x326 + x337 >= 1
 c96:  x12 + x74 + x159 + x191 + x310 + x315 >= 1
 c97:  x38 + x201 + x202 + x217 + x220 + x246 + x266 + x269 + x298 >= 1
 c98:  x52 + x72 + x97 + x165 + x168 + x221 + x272 + x309 + x317 >= 1
 c99:  x41 + x68 + x83 + x84 + x96 + x105 + x106 + x115 + x125 + x132 + x265
       + x318 >= 1
 c100: x44 + x69 + x305 + x327 >= 1
 c101: x8 + x49 + x68 + x73 + x96 + x141 + x172 + x250 >= 1
 c102: x65 + x188 + x250 + x277 + x313 + x320 >= 1
 c103: x46 + x54 + x61 + x144 + x178 + x185 + x203 + x213 + x238 + x281 + x302
       + x307 >= 1
 c104: x34 + x70 + x86 + x150 + x185 + x212 + x275 + x325 >= 1
 c105: x1 + x35 + x49 + x83 + x208 + x266 + x269 >= 1
 c106: x7 + x135 + x165 + x196 + x276 >= 1
 c107: x25 + x83 + x149 + x219 + x263 + x293 + x301 + x306 + x334 >= 1
 c108: x35 + x41 + x54 + x58 + x66 + x107 + x114 + x265 >= 1
 c109: x168 + x279 >= 1
 c110: x67 + x159 + x249 + x251 + x305 + x306 >= 1
 c111: x63 + x138 + x188 + x216 + x230 + x236 + x241 + x326 >= 1
 c112: x106 + x112 + x163 + x189 + x270 + x292 >= 1
 c113: x13 + x34 + x42 + x85 + x91 + x123 + x127 + x154 + x164 + x172 + x214
       + x253 + x257 + x326 >= 1
 c114: x65 + x158 + x168 + x184 + x206 + x228 + x254 + x294 + x328 >= 1
 c115: x7 + x9 + x64 + x92 + x128 + x150 + x173 + x262 + x272 + x275 + x287
       >= 1
 c116: x88 + x119 + x143 + x230 + x288 + x293 >= 1
 c117: x51 + x68 + x77 + x161 + x170 + x183 + x204 >= 1
 c118: x31 + x37 + x62 + x111 + x112 + x119 + x207 + x244 + x268 + x271 + x277
       + x327 >= 1
 c119: x54 + x112 + x150 + x187 + x194 + x210 + x320 >= 1
 c120: x60 + x129 + x202 + x234 + x240 + x302 + x314 >= 1
 c121: x21 + x25 + x121 + x123 + x256 + x258 + x314 + x320 >= 1
 c122: x19 + x132 + x170 + x186 + x241 + x283 + x286 >= 1
 c123: x3 + x4 + x58 + x233 >= 1
 c124: x46 + x78 + x147 + x208 + x220 + x274 >= 1
 c125: x6 + x8 + x43 + x246 + x274 >= 1
 c126: x74 + x116 + x120 + x154 + x176 + x182 + x219 + x221 + x254 + x256
       + x264 + x337 >= 1
 c127: x34 + x129 + x137 + x216 + x269 + x329 + x333 >= 1
 c128: x8 + x36 + x71 + x88 + x109 + x140 + x225 + x256 >= 1
 c129: x4 + x32 + x34 + x105 + x126 + x132 + x145 + x171 + x172 + x177 + x248
       + x289 >= 1
 c130: x11 + x64 + x81 + x147 + x276 + x284 + x286 + x307 + x317 >= 1
 c131: x17 + x144 + x179 + x270 + x311 + x328 >= 1
 c132: x21 + x98 + x171 + x173 + x208 + x224 + x234 + x265 + x310 >= 1
 c133: x9 + x13 + x81 + x87 + x140 + x149 + x294 >= 1
 c134: x52 + x64 + x259 + x261 + x265 + x308 + x325 >= 1
 c135: x6 + x10 + x140 + x142 + x267 >= 1
 c136: x36 + x82 + x131 + x144 + x199 + x242 + x279 + x307 + x329 >= 1
 c137: x8 + x105 + x142 + x161 + x193 + x287 + x289 + x299 + x309 + x315 + x330
       >= 1
 c138: x68 + x76 + x124 + x158 + x251 + x268 + x289 >= 1
 c139: x4 + x9 + x24 + x69 + x114 + x142 + x154 + x163 + x206 + x218 + x219
       + x223 >= 1
 c140: x62 + x85 + x149 + x151 + x185 + x188 + x276 + x286 >= 1
 c141: x8 + x78 + x81 + x124 + x141 + x176 + x250 >= 1
 c142: x39 + x42 + x81 + x84 + x117 + x125 + x181 + x211 + x247 + x264 + x265
       >= 1
 c143: x16 + x44 + x88 + x141 + x142 + x198 + x200 + x279 >= 1
 c144: x44 + x50 + x68 + x83 + x266 + x291 + x307 + x308 + x315 >= 1
 c145: x89 + x95 + x157 + x197 + x217 + x233 + x245 + x262 + x299 + x306 + x324
       + x327 >= 1
 c146: x45 + x62 + x70 + x90 + x96 + x168 + x212 + x218 + x273 + x280 + x301
       >= 1
 c147: x33 + x42 + x49 + x235 + x335 >= 1
 c148: x14 + x57 + x81 + x205 + x229 + x271 + x274 + x288 + x303 + x326 + x337
       >= 1
 c149: x6 + x32 + x159 + x169 + x175 + x202 + x264 + x289 + x290 + x303 >= 1
 c150: x82 + x195 + x226 + x274 + x291 + x318 + x320 >= 1
 c151: x40 + x57 + x146 + x199 + x231 + x253 + x305 + x332 >= 1
 c152: x48 + x58 + x174 + x216 + x260 + x316 >= 1
 c153: x73 + x111 + x117 + x118 + x119 + x152 + x183 + x199 + x200 + x311
       + x323 >= 1
 c154: x13 + x84 + x97 + x168 + x202 + x243 + x319 >= 1
 c155: x108 + x124 + x144 + x188 + x223 + x236 + x323 >= 1
 c156: x173 + x177 + x209 + x211 + x251 + x260 + x281 + x283 + x289 + x290
       + x294 + x310 + x316 + x334 >= 1
 c157: x76 + x80 + x135 + x136 + x145 + x165 + x213 + x242 + x251 + x253 + x283
       + x296 + x318 >= 1
 c158: x12 + x14 + x56 + x57 + x121 + x154 + x185 + x276 + x328 >= 1
 c159: x1 + x2 + x126 + x305 >= 1
 c160: x75 + x86 + x103 + x155 + x243 + x286 + x296 + x302 >= 1
 c161: x23 + x31 + x203 + x227 + x268 >= 1
 c162: x3 + x130 + x199 + x260 + x274 + x304 + x313 >= 1
 c163: x19 + x82 + x89 + x118 + x126 + x127 + x198 + x205 + x233 + x244 + x245
       >= 1
 c164: x69 + x151 + x189 + x233 + x258 + x283 + x295 + x325 >= 1
 c165: x65 + x198 + x204 + x212 + x234 + x261 >= 1
 c166: x110 + x134 + x167 + x204 + x221 + x233 + x297 + x303 + x304 + x308
       + x328 >= 1
 c167: x1 + x12 + x22 + x151 + x195 + x275 + x286 + x319 + x323 >= 1
 c168: x21 + x34 + x46 + x61 + x126 + x212 + x218 + x245 + x250 + x336 >= 1
 c169: x66 + x82 + x100 + x113 + x162 + x227 + x282 + x334 >= 1
 c170: x5 + x68 + x72 + x154 + x316 + x326 >= 1
 c171: x50 + x96 + x157 + x188 + x201 + x207 + x234 + x297 + x305 + x310 >= 1
 c172: x146 + x200 + x232 + x242 + x268 + x280 + x287 + x290 + x298 + x300
       + x304 + x335 >= 1
 c173: x31 + x92 + x140 + x174 + x198 + x230 + x238 + x265 >= 1
 c174: x28 + x110 + x153 + x249 >= 1
 c175: x22 + x47 + x140 + x144 + x156 + x195 + x199 + x222 + x295 + x305 >= 1
 c176: x4 + x35 + x123 + x126 + x190 + x285 >= 1
 c177: x34 + x82 + x98 + x198 + x212 + x237 + x310 >= 1
 c178: x31 + x46 + x182 + x224 + x226 + x237 + x260 >= 1
 c179: x17 + x41 + x169 + x171 + x223 >= 1
 c180: x63 + x104 + x120 + x122 + x155 + x219 + x236 + x249 + x252 + x322
       + x324 >= 1
 c181: x86 + x150 + x174 + x294 + x309 + x328 >= 1
 c182: x43 + x64 + x93 + x156 + x173 + x217 + x244 + x253 + x283 + x332 >= 1
 c183: x178 + x251 + x325 + x332 + x333 + x335 + x337 >= 1
 c184: x26 + x37 + x79 + x82 + x201 + x322 + x330 >= 1
 c185: x77 + x99 + x153 + x221 + x240 + x249 + x250 + x282 >= 1
 c186: x15 + x97 + x148 + x209 + x225 + x286 + x313 + x320 + x327 >= 1
 c187: x6 + x85 + x215 + x278 >= 1
 c188: x32 + x77 + x92 + x103 + x108 + x184 + x190 + x194 + x203 + x242 + x268
       + x284 >= 1
 c189: x3 + x176 + x183 + x201 + x206 + x311 >= 1
 c190: x1 + x7 + x25 + x127 + x217 + x218 + x220 >= 1
 c191: x66 + x141 + x184 + x191 + x217 + x314 >= 1
 c192: x33 + x121 + x151 + x209 + x240 + x284 + x292 + x319 + x323 >= 1
 c193: x4 + x101 + x103 + x104 + x127 + x133 + x210 + x233 + x252 + x288 >= 1
 c194: x124 + x200 + x237 + x246 + x273 + x308 + x318 >= 1
 c195: x2 + x34 + x73 + x136 + x249 + x270 + x286 + x297 + x328 >= 1
 c196: x40 + x48 + x142 + x149 + x169 + x304 >= 1
 c197: x48 + x157 + x160 + x221 + x270 + x298 + x316 >= 1
 c198: x33 + x62 + x209 + x264 >= 1
 c199: x38 + x42 + x84 + x104 + x115 + x188 + x196 + x313 + x327 >= 1
 c200: x2 + x4 + x36 + x53 + x113 + x119 + x123 + x128 + x137 + x150 + x158
       + x235 + x249 >= 1
 c201: x56 + x107 + x111 + x187 + x205 + x233 + x272 + x287 + x316 + x329
       + x330 >= 1
 c202: x20 + x151 + x214 + x244 + x265 >= 1
 c203: x34 + x53 + x94 + x176 + x253 + x275 + x324 >= 1
 c204: x19 + x259 >= 1
 c205: x10 + x63 + x200 + x201 + x304 + x331 >= 1
 c206: x23 + x27 + x65 + x108 + x121 + x123 + x145 + x198 + x252 + x255 + x264
       + x274 + x291 >= 1
 c207: x16 + x74 + x203 + x222 + x256 >= 1
 c208: x2 + x70 + x138 + x141 + x143 + x198 + x271 + x295 + x323 >= 1
 c209: x72 + x74 + x81 + x83 + x111 + x134 + x162 + x167 + x309 >= 1
 c210: x47 + x86 + x126 + x130 + x175 + x184 + x252 + x286 >= 1
 c211: x16 + x64 + x153 + x216 + x231 + x276 >= 1
 c212: x20 + x97 + x107 + x146 + x158 + x239 + x284 + x316 >= 1
 c213: x14 + x89 + x147 + x192 + x301 >= 1
 c214: x6 + x41 + x61 + x112 + x173 + x221 + x286 + x295 + x301 >= 1
 c215: x48 + x116 + x183 + x234 + x300 + x336 >= 1
 c216: x9 + x45 + x132 + x148 + x155 + x206 + x235 >= 1
 c217: x31 + x33 + x55 + x64 + x104 + x113 + x118 + x129 + x145 + x214 + x248
       + x296 >= 1
 c218: x12 + x39 + x81 + x140 + x235 + x250 + x274 + x304 >= 1
 c219: x5 + x61 + x117 + x125 + x150 + x276 + x320 >= 1
 c220: x35 + x128 + x152 + x201 + x301 + x306 + x312 + x317 >= 1
 c221: x111 + x139 + x181 + x220 + x231 + x234 + x252 + x296 + x298 >= 1
 c222: x62 + x94 + x103 + x107 + x145 + x185 + x238 + x285 + x290 + x335 >= 1
 c223: x10 + x14 + x36 + x82 + x108 + x123 + x275 + x298 + x333 >= 1
 c224: x17 + x26 + x112 + x280 + x332 >= 1
 c225: x183 + x193 + x214 + x257 + x265 + x334 + x337 >= 1
 c226: x18 + x37 + x43 + x50 + x168 + x324 >= 1
 c227: x156 + x171 + x206 + x219 + x225 + x256 + x275 + x288 + x303 + x309
       + x330 >= 1
 c228: x110 + x120 + x133 + x186 + x201 + x263 + x278 + x290 + x298 + x301
       + x305 + x311 + x321 + x332 >= 1
 c229: x65 + x84 + x154 + x297 + x331 + x333 >= 1
 c230: x107 + x123 + x126 + x186 + x187 + x210 + x254 + x265 + x323 >= 1
 c231: x35 + x90 + x91 + x142 + x153 + x159 + x200 + x226 + x257 + x311 + x326
       >= 1
 c232: x74 + x81 + x127 + x202 + x249 + x277 + x286 + x290 >= 1
 c233: x5 + x66 + x91 + x117 + x140 + x286 + x295 >= 1
 c234: x94 + x120 + x161 + x198 + x212 + x280 + x302 >= 1
 c235: x24 + x222 + x244 + x246 + x308 >= 1
 c236: x1 + x7 + x11 + x208 + x224 + x235 + x241 + x281 + x292 + x315 >= 1
 c237: x45 + x56 + x90 + x91 + x215 + x239 >= 1
 c238: x2 + x32 + x72 + x152 + x186 + x192 + x200 + x202 + x228 + x243 + x327
       >= 1
 c239: x26 + x31 + x42 + x61 + x71 + x115 + x152 + x162 + x178 + x183 + x187
       + x300 >= 1
 c240: x43 + x72 + x178 + x239 + x260 >= 1
 c241: x33 + x71 + x122 + x142 + x243 + x283 + x294 >= 1
 c242: x111 + x122 + x155 + x208 + x219 + x227 + x262 + x301 + x307 >= 1
 c243: x78 + x137 + x147 + x150 + x162 + x270 + x288 + x314 + x317 + x326
       + x333 >= 1
 c244: x18 + x131 + x136 + x137 + x186 + x203 + x237 + x267 + x290 + x310
       + x329 + x335 >= 1
 c245: x33 + x42 + x106 + x138 + x203 + x213 + x277 + x283 + x314 + x321 >= 1
 c246: x102 + x104 + x114 + x134 + x153 + x155 + x237 + x287 + x300 + x312 >= 1
 c247: x31 + x81 + x182 + x183 + x198 + x267 + x304 >= 1
 c248: x1 + x44 + x184 + x190 + x227 + x279 + x304 >= 1
 c249: x24 + x128 + x160 + x191 + x269 >= 1
 c250: x33 + x45 + x63 + x109 + x133 + x141 + x189 + x239 + x297 + x311 + x324
       + x334 >= 1
 c251: x5 + x35 + x115 + x126 + x142 + x201 + x216 + x243 + x279 >= 1
 c252: x112 + x179 + x195 + x199 + x211 + x236 + x334 >= 1
 c253: x117 + x199 + x239 + x247 + x301 + x328 >= 1
 c254: x11 + x23 + x32 + x87 + x125 + x127 + x159 + x209 + x234 + x252 + x253
       + x302 >= 1
 c255: x39 + x103 >= 1
 c256: x63 + x65 + x66 + x130 + x149 + x257 + x264 + x266 + x296 >= 1
 c257: x3 + x6 + x62 + x108 + x172 + x187 + x193 + x213 + x330 >= 1
 c258: x10 + x32 + x166 + x180 + x184 + x325 >= 1
 c259: x38 + x49 + x167 + x215 + x233 + x267 >= 1
 c260: x31 + x79 + x130 + x203 + x228 + x234 + x254 + x281 + x299 + x300 + x302
       >= 1
 c261: x32 + x63 + x143 + x157 + x211 + x261 + x274 + x281 >= 1
 c262: x103 + x233 + x245 + x305 + x310 + x322 + x327 >= 1
 c263: x22 + x34 + x93 + x110 + x127 + x176 + x252 + x313 >= 1
 c264: x59 + x64 + x110 + x124 + x169 + x232 + x288 >= 1
 c265: x43 + x85 + x129 + x331 + x333 >= 1
 c266: x167 + x253 + x263 + x273 + x309 + x314 + x320 + x322 + x332 >= 1
 c267: x82 + x130 + x169 + x202 + x225 + x252 + x267 + x284 + x330 >= 1
 c268: x86 + x160 + x187 + x190 + x193 + x242 + x249 + x329 >= 1
 c269: x3 + x15 + x99 + x149 + x223 + x236 + x287 + x288 + x313 + x321 + x329
       >= 1
 c270: x31 + x33 + x56 + x81 + x90 + x176 + x180 + x200 + x209 + x214 + x229
       + x235 + x240 + x285 + x295 >= 1
 c271: x1 + x105 + x108 + x109 + x131 + x146 + x255 + x269 >= 1
 c272: x19 + x177 + x179 + x196 + x290 >= 1
 c273: x83 + x213 + x220 + x334 + x336 >= 1
 c274: x148 + x235 + x275 + x303 + x312 + x315 + x318 + x326 >= 1
 c275: x118 + x194 + x198 + x205 + x207 + x229 + x235 + x255 + x261 + x272
       + x314 + x316 + x317 + x326 >= 1
 c276: x18 + x51 + x67 + x128 + x130 + x146 + x212 + x276 + x319 + x329 >= 1
 c277: x91 + x125 + x223 + x317 >= 1
 c278: x40 + x75 + x76 + x161 + x188 + x189 + x337 >= 1
 c279: x109 + x141 + x148 + x178 + x197 + x310 >= 1
 c280: x47 + x52 + x104 + x125 + x134 + x182 + x237 + x266 >= 1
 c281: x12 + x164 + x171 + x193 + x241 + x266 + x278 + x286 + x289 + x325 >= 1
 c282: x49 + x157 + x171 + x175 + x183 + x218 + x220 + x258 + x264 + x295
       + x313 + x322 >= 1
 c283: x7 + x44 + x57 + x77 + x107 + x233 + x308 >= 1
 c284: x18 + x95 + x123 + x167 + x259 + x293 >= 1
 c285: x62 + x93 + x145 + x194 + x296 + x301 + x310 + x320 >= 1
 c286: x85 + x148 + x151 + x187 + x213 + x238 + x255 + x321 + x327 + x328 >= 1
 c287: x10 + x160 + x189 + x203 >= 1
 c288: x129 + x174 + x212 + x229 + x233 + x237 + x251 + x300 + x320 + x332 >= 1
 c289: x2 + x147 >= 1
 c290: x11 + x61 + x106 + x160 + x167 + x332 >= 1
 c291: x43 + x153 + x183 + x312 >= 1
 c292: x1 + x9 + x64 + x85 + x125 + x234 + x239 + x254 + x332 >= 1
 c293: x7 + x17 + x24 + x36 + x40 + x132 + x136 + x169 + x234 >= 1
 c294: x191 + x196 + x213 + x216 + x258 + x268 + x269 + x271 + x278 + x302
       + x315 + x331 + x333 + x336 >= 1
 c295: x87 + x127 + x152 + x269 + x306 + x322 >= 1
 c296: x35 + x84 + x124 + x163 + x204 + x215 + x218 + x317 + x321 >= 1
 c297: x2 + x7 + x141 + x155 + x161 + x285 >= 1
 c298: x51 + x104 + x204 + x272 + x296 + x297 >= 1
 c299: x2 + x13 + x31 + x35 + x106 + x132 + x170 + x264 + x268 >= 1
 c300: x1 + x75 + x156 + x179 + x180 + x302 >= 1
Bounds
 0 <= x1 <= 1
 0 <= x2 <= 1
 0 <= x3 <= 1
 0 <= x4 <= 1
 0 <= x5 <= 1
 0 <= x6 <= 1
 0 <= x7 <= 1
 0 <= x8 <= 1
 0 <= x9 <= 1
 0 <= x10 <= 1
 0 <= x11 <= 1
 0 <= x12 <= 1
 0 <= x13 <= 1
 0 <= x14 <= 1
 0 <= x15 <= 1
 0 <= x16 <= 1
 0 <= x17 <= 1
 0 <= x18 <= 1
 0 <= x19 <= 1
 0 <= x20 <= 1
 0 <= x21 <= 1
 0 <= x22 <= 1
 0 <= x23 <= 1
 0 <= x24 <= 1
 0 <= x25 <= 1
 0 <= x26 <= 1
 0 <= x27 <= 1
 0 <= x28 <= 1
 0 <= x29 <= 1
 0 <= x30 <= 1
 0 <= x31 <= 1
 0 <= x32 <= 1
 0 <= x33 <= 1
 0 <= x34 <= 1
 0 <= x35 <= 1
 0 <= x36 <= 1
 0 <= x37 <= 1
 0 <= x38 <= 1
 0 <= x39 <= 1
 0 <= x40 <= 1
 0 <= x41 <= 1
 0 <= x42 <= 1
 0 <= x43 <= 1
 0 <= x44 <= 1
 0 <= x45 <= 1
 0 <= x46 <= 1
 0 <= x47 <= 1
 0 <= x48 <= 1
 0 <= x49 <= 1
 0 <= x50 <= 1
 0 <= x51 <= 1
 0 <= x52 <= 1
 0 <= x53 <= 1
 0 <= x54 <= 1
 0 <= x55 <= 1
 0 <= x56 <= 1
 0 <= x57 <= 1
 0 <= x58 <= 1
 0 <= x59 <= 1
 0 <= x60 <= 1
 0 <= x61 <= 1
 0 <= x62 <= 1
 0 <= x63 <= 1
 0 <= x64 <= 1
 0 <= x65 <= 1
 0 <= x66 <= 1
 0 <= x67 <= 1
 0 <= x68 <= 1
 0 <= x69 <= 1
 0 <= x70 <= 1
 0 <= x71 <= 1
 0 <= x72 <= 1
 0 <= x73 <= 1
 0 <= x74 <= 1
 0 <= x75 <= 1
 0 <= x76 <= 1
 0 <= x77 <= 1
 0 <= x78 <= 1
 0 <= x79 <= 1
 0 <= x80 <= 1
 0 <= x81 <= 1
 0 <= x82 <= 1
 0 <= x83 <= 1
 0 <= x84 <= 1
 0 <= x85 <= 1
 0 <= x86 <= 1
 0 <= x87 <= 1
 0 <= x88 <= 1
 0 <= x89 <= 1
 0 <= x90 <= 1
 0 <= x91 <= 1
 0 <= x92 <= 1
 0 <= x93 <= 1
 0 <= x94 <= 1
 0 <= x95 <= 1
 0 <= x96 <= 1
 0 <= x97 <= 1
 0 <= x98 <= 1
 0 <= x99 <= 1
 0 <= x100 <= 1
 0 <= x101 <= 1
 0 <= x102 <= 1
 0 <= x103 <= 1
 0 <= x104 <= 1
 0 <= x105 <= 1
 0 <= x106 <= 1
 0 <= x107 <= 1
 0 <= x108 <= 1
 0 <= x109 <= 1
 0 <= x110 <= 1
 0 <= x111 <= 1
 0 <= x112 <= 1
 0 <= x113 <= 1
 0 <= x114 <= 1
 0 <= x115 <= 1
 0 <= x116 <= 1
 0 <= x117 <= 1
 0 <= x118 <= 1
 0 <= x119 <= 1
 0 <= x120 <= 1
 0 <= x121 <= 1
 0 <= x122 <= 1
 0 <= x123 <= 1
 0 <= x124 <= 1
 0 <= x125 <= 1
 0 <= x126 <= 1
 0 <= x127 <= 1
 0 <= x128 <= 1
 0 <= x129 <= 1
 0 <= x130 <= 1
 0 <= x131 <= 1
 0 <= x132 <= 1
 0 <= x133 <= 1
 0 <= x134 <= 1
 0 <= x135 <= 1
 0 <= x136 <= 1
 0 <= x137 <= 1
 0 <= x138 <= 1
 0 <= x139 <= 1
 0 <= x140 <= 1
 0 <= x141 <= 1
 0 <= x142 <= 1
 0 <= x143 <= 1
 0 <= x144 <= 1
 0 <= x145 <= 1
 0 <= x146 <= 1
 0 <= x147 <= 1
 0 <= x148 <= 1
 0 <= x149 <= 1
 0 <= x150 <= 1
 0 <= x151 <= 1
 0 <= x152 <= 1
 0 <= x153 <= 1
 0 <= x154 <= 1
 0 <= x155 <= 1
 0 <= x156 <= 1
 0 <= x157 <= 1
 0 <= x158 <= 1
 0 <= x159 <= 1
 0 <= x160 <= 1
 0 <= x161 <= 1
 0 <= x162 <= 1
 0 <= x163 <= 1
 0 <= x164 <= 1
 0 <= x165 <= 1
 0 <= x166 <= 1
 0 <= x167 <= 1
 0 <= x168 <= 1
 0 <= x169 <= 1
 0 <= x170 <= 1
 0 <= x171 <= 1
 0 <= x172 <= 1
 0 <= x173 <= 1
 0 <= x174 <= 1
 0 <= x175 <= 1
 0 <= x176 <= 1
 0 <= x177 <= 1
 0 <= x178 <= 1
 0 <= x179 <= 1
 0 <= x180 <= 1
 0 <= x181 <= 1
 0 <= x182 <= 1
 0 <= x183 <= 1
 0 <= x184 <= 1
 0 <= x185 <= 1
 0 <= x186 <= 1
 0 <= x187 <= 1
 0 <= x188 <= 1
 0 <= x189 <= 1
 0 <= x190 <= 1
 0 <= x191 <= 1
 0 <= x192 <= 1
 0 <= x193 <= 1
 0 <= x194 <= 1
 0 <= x195 <= 1
 0 <= x196 <= 1
 0 <= x197 <= 1
 0 <= x198 <= 1
 0 <= x199 <= 1
 0 <= x200 <= 1
 0 <= x201 <= 1
 0 <= x202 <= 1
 0 <= x203 <= 1
 0 <= x204 <= 1
 0 <= x205 <= 1
 0 <= x206 <= 1
 0 <= x207 <= 1
 0 <= x208 <= 1
 0 <= x209 <= 1
 0 <= x210 <= 1
 0 <= x211 <= 1
 0 <= x212 <= 1
 0 <= x213 <= 1
 0 <= x214 <= 1
 0 <= x215 <= 1
 0 <= x216 <= 1
 0 <= x217 <= 1
 0 <= x218 <= 1
 0 <= x219 <= 1
 0 <= x220 <= 1
 0 <= x221 <= 1
 0 <= x222 <= 1
 0 <= x223 <= 1
 0 <= x224 <= 1
 0 <= x225 <= 1
 0 <= x226 <= 1
 0 <= x227 <= 1
 0 <= x228 <= 1
 0 <= x229 <= 1
 0 <= x230 <= 1
 0 <= x231 <= 1
 0 <= x232 <= 1
 0 <= x233 <= 1
 0 <= x234 <= 1
 0 <= x235 <= 1
 0 <= x236 <= 1
 0 <= x237 <= 1
 0 <= x238 <= 1
 0 <= x239 <= 1
 0 <= x240 <= 1
 0 <= x241 <= 1
 0 <= x242 <= 1
 0 <= x243 <= 1
 0 <= x244 <= 1
 0 <= x245 <= 1
 0 <= x246 <= 1
 0 <= x247 <= 1
 0 <= x248 <= 1
 0 <= x249 <= 1
 0 <= x250 <= 1
 0 <= x251 <= 1
 0 <= x252 <= 1
 0 <= x253 <= 1
 0 <= x254 <= 1
 0 <= x255 <= 1
 0 <= x256 <= 1
 0 <= x257 <= 1
 0 <= x258 <= 1
 0 <= x259 <= 1
 0 <= x260 <= 1
 0 <= x261 <= 1
 0 <= x262 <= 1
 0 <= x263 <= 1
 0 <= x264 <= 1
 0 <= x265 <= 1
 0 <= x266 <= 1
 0 <= x267 <= 1
 0 <= x268 <= 1
 0 <= x269 <= 1
 0 <= x270 <= 1
 0 <= x271 <= 1
 0 <= x272 <= 1
 0 <= x273 <= 1
 0 <= x274 <= 1
 0 <= x275 <= 1
 0 <= x276 <= 1
 0 <= x277 <= 1
 0 <= x278 <= 1
 0 <= x279 <= 1
 0 <= x280 <= 1
 0 <= x281 <= 1
 0 <= x282 <= 1
 0 <= x283 <= 1
 0 <= x284 <= 1
 0 <= x285 <= 1
 0 <= x286 <= 1
 0 <= x287 <= 1
 0 <= x288 <= 1
 0 <= x289 <= 1
 0 <= x290 <= 1
 0 <= x291 <= 1
 0 <= x292 <= 1
 0 <= x293 <= 1
 0 <= x294 <= 1
 0 <= x295 <= 1
 0 <= x296 <= 1
 0 <= x297 <= 1
 0 <= x298 <= 1
 0 <= x299 <= 1
 0 <= x300 <= 1
 0 <= x301 <= 1
 0 <= x302 <= 1
 0 <= x303 <= 1
 0 <= x304 <= 1
 0 <= x305 <= 1
 0 <= x306 <= 1
 0 <= x307 <= 1
 0 <= x308 <= 1
 0 <= x309 <= 1
 0 <= x310 <= 1
 0 <= x311 <= 1
 0 <= x312 <= 1
 0 <= x313 <= 1
 0 <= x314 <= 1
 0 <= x315 <= 1
 0 <= x316 <= 1
 0 <= x317 <= 1
 0 <= x318 <= 1
 0 <= x319 <= 1
 0 <= x320 <= 1
 0 <= x321 <= 1
 0 <= x322 <= 1
 0 <= x323 <= 1
 0 <= x324 <= 1
 0 <= x325 <= 1
 0 <= x326 <= 1
 0 <= x327 <= 1
 0 <= x328 <= 1
 0 <= x329 <= 1
 0 <= x330 <= 1
 0 <= x331 <= 1
 0 <= x332 <= 1
 0 <= x333 <= 1
 0 <= x334 <= 1
 0 <= x335 <= 1
 0 <= x336 <= 1
 0 <= x337 <= 1
Binaries
 x1  x2  x3  x4  x5  x6  x7  x8  x9  x10  x11  x12  x13  x14  x15  x16  x17 
 x18  x19  x20  x21  x22  x23  x24  x25  x26  x27  x28  x29  x30  x31  x32 
 x33  x34  x35  x36  x37  x38  x39  x40  x41  x42  x43  x44  x45  x46  x47 
 x48  x49  x50  x51  x52  x53  x54  x55  x56  x57  x58  x59  x60  x61  x62 
 x63  x64  x65  x66  x67  x68  x69  x70  x71  x72  x73  x74  x75  x76  x77 
 x78  x79  x80  x81  x82  x83  x84  x85  x86  x87  x88  x89  x90  x91  x92 
 x93  x94  x95  x96  x97  x98  x99  x100  x101  x102  x103  x104  x105  x106 
 x107  x108  x109  x110  x111  x112  x113  x114  x115  x116  x117  x118  x119 
 x120  x121  x122  x123  x124  x125  x126  x127  x128  x129  x130  x131  x132 
 x133  x134  x135  x136  x137  x138  x139  x140  x141  x142  x143  x144  x145 
 x146  x147  x148  x149  x150  x151  x152  x153  x154  x155  x156  x157  x158 
 x159  x160  x161  x162  x163  x164  x165  x166  x167  x168  x169  x170  x171 
 x172  x173  x174  x175  x176  x177  x178  x179  x180  x181  x182  x183  x184 
 x185  x186  x187  x188  x189  x190  x191  x192  x193  x194  x195  x196  x197 
 x198  x199  x200  x201  x202  x203  x204  x205  x206  x207  x208  x209  x210 
 x211  x212  x213  x214  x215  x216  x217  x218  x219  x220  x221  x222  x223 
 x224  x225  x226  x227  x228  x229  x230  x231  x232  x233  x234  x235  x236 
 x237  x238  x239  x240  x241  x242  x243  x244  x245  x246  x247  x248  x249 
 x250  x251  x252  x253  x254  x255  x256  x257  x258  x259  x260  x261  x262 
 x263  x264  x265  x266  x267  x268  x269  x270  x271  x272  x273  x274  x275 
 x276  x277  x278  x279  x280  x281  x282  x283  x284  x285  x286  x287  x288 
 x289  x290  x291  x292  x293  x294  x295  x296  x297  x298  x299  x300  x301 
 x302  x303  x304  x305  x306  x307  x308  x309  x310  x311  x312  x313  x314 
 x315  x316  x317  x318  x319  x320  x321  x322  x323  x324  x325  x326  x327 
 x328  x329  x330  x331  x332  x333  x334  x335  x336  x337 
End
